 header                                 
   1.00000000000000     
     0.0000000000000000   11.9454139999999995    0.0000000000000000
     0.0000000000000000    0.0000000000000000   14.9169079999999994
    22.2334910000000008    0.0000000000000000    0.0000000000000000
   Al   O    H 
    48   120    96
Direct
  0.6715427938782981  0.0641991485412524  0.0610817271749357
  0.6715409418929053  0.3141981796329690  0.0610838648310644
  0.6715398794549720  0.5641987217183241  0.0610837785103383
  0.6715417069739468  0.8141982318520958  0.0610836784851285
  0.6616769516895411  0.0640727508377579  0.1903791330411097
  0.6616775227440993  0.3140715953922527  0.1903799531808938
  0.6616774870412013  0.5640726756066620  0.1903811280210653
  0.6616758376137412  0.8140723857014223  0.1903798185367146
  0.6538120162203516  0.0636831169812193  0.3168131477736424
  0.6538127409360341  0.3136841617964036  0.3168147233551308
  0.6538126377690763  0.5636828701921334  0.3168141743734018
  0.6538112172974244  0.8136837343638436  0.3168135346618406
  0.2979501403832152  0.1888567662231831  0.0636094390891249
  0.2979493272872563  0.4388559138353627  0.0636111418811425
  0.2979502837686805  0.6888587171026684  0.0636112901780457
  0.2979497302605063  0.9388571162817825  0.0636099879573822
  0.3036807704761453  0.1893453127961532  0.1939255366614016
  0.3036810694485855  0.4393460999514824  0.1939271294553209
  0.3036817610712436  0.6893439534764116  0.1939270663619523
  0.3036799845869074  0.9393469871223075  0.1939261530413882
  0.3082248614632510  0.1893078849754981  0.3245572262726490
  0.3082202119084534  0.4393050943112823  0.3245588510593884
  0.3082203904557257  0.6893079390931732  0.3245595425124791
  0.3082252209174462  0.9393058310089777  0.3245575025209539
  0.1617634445201353  0.0640633222544817  0.1330833869673804
  0.1617625016994195  0.3140625302540960  0.1330866860434624
  0.1617616588420789  0.5640640376573720  0.1330848670872090
  0.1617618086884814  0.8140643324063307  0.1330880259939876
  0.1718342033895758  0.0641616659426792  0.2623950217625559
  0.1718346063345861  0.3141612945924500  0.2623954961023374
  0.1718327201165075  0.5641617094728169  0.2623972560817739
  0.1718346488328973  0.8141615318097419  0.2623958702418985
  0.8035511607631669  0.1893760714417881  0.1295128412850883
  0.8035486784807999  0.4393745159591585  0.1295127165614118
  0.8035494592919858  0.6893754301143428  0.1295131700882907
  0.8035488339384698  0.9393771857244028  0.1295120594686437
  0.7980603990302073  0.1888794017339073  0.2598156795290425
  0.7980616274164193  0.4388804905699276  0.2598161278425432
  0.7980585141849952  0.6888812923562022  0.2598162146279797
  0.7980594320679962  0.9388800540123579  0.2598149461482561
  0.1535320120658025  0.8136874373661733  0.0066998107854245
  0.1535336425990380  0.5636903031529175  0.0067006135276004
  0.1535330336821525  0.3136921722232249  0.0066980266269416
  0.1535354078169643  0.0636909802643741  0.0066959816537501
  0.8079180732877634  0.6893477384760401  0.9988717133542733
  0.8079181124675898  0.4393474377501160  0.9988705207436946
  0.8079190816202972  0.1893495869658192  0.9988714742723181
  0.8079189598757661  0.9393470124519765  0.9988716636749919
  0.2711996839337703  0.0638134954778674  0.0641044983259220
  0.2711991032854608  0.3138137647966282  0.0641069416350474
  0.2711982900501365  0.5638132992942524  0.0641069530303310
  0.2712000880648049  0.8138133040900593  0.0641082484830896
  0.2762046193408303  0.0641374829747396  0.1941093866208709
  0.2762049219472097  0.3141366709711707  0.1941095282853464
  0.2762037950342554  0.5641360436963224  0.1941109566448085
  0.2762051649856674  0.8141370424713664  0.1941094655200825
  0.2831427431755050  0.0641746058303677  0.3214583753560308
  0.2831417812746933  0.3141738609124706  0.3214570086294530
  0.2831402127431702  0.5641737945652747  0.3214597701483359
  0.2831428508754597  0.8141747932341016  0.3214580205252798
  0.0548453710520817  0.0638294792380101  0.0706869389657940
  0.0548419259998992  0.3138298350656761  0.0706877466396275
  0.0548441850736984  0.5638278855199530  0.0706881028915123
  0.0548396690550973  0.8138292023616288  0.0706896549682080
  0.0617566360611203  0.0654855539377799  0.1984519391109106
  0.0617551817646840  0.3154846220429542  0.1984510114554939
  0.0617555469218388  0.5654861060088791  0.1984541968511387
  0.0617567650440868  0.8154848010796315  0.1984519783155501
  0.0533589637636539  0.0636924632873150  0.3233870952083613
  0.0533610783153931  0.3136928100436736  0.3233890046067377
  0.0533606027185247  0.5636934493416828  0.3233907670663651
  0.0533619024589349  0.8136934761330306  0.3233890769966583
  0.6920746351786388  0.1891659622577163  0.0622174909434838
  0.6920738805265771  0.4391667734265294  0.0622180927886558
  0.6920723815983179  0.6891673540293911  0.0622186910213305
  0.6920743709527325  0.9391673786707397  0.0622178723401013
  0.6904359428990184  0.1889408850214266  0.1924329459381865
  0.6904350886176851  0.4389422798660160  0.1924336074219924
  0.6904349076189538  0.6889423569928809  0.1924338518021813
  0.6904330436814682  0.9389419367862173  0.1924329993033407
  0.6886066005645611  0.1885727280216105  0.3226470751726188
  0.6886078341985624  0.4385733370883499  0.3226477779650092
  0.6886053391999577  0.6885730861331421  0.3226472751991421
  0.6886062192454806  0.9385732583972354  0.3226462621171147
  0.9090360335994924  0.1907779210478442  0.0664274711685961
  0.9090343991959087  0.4407800163771636  0.0664277211481149
  0.9090331842984870  0.6907779648865319  0.0664277249147671
  0.9090345817424804  0.9407801192533974  0.0664282486484910
  0.9047101410243555  0.1901388233038040  0.1956237438886743
  0.9047105754748438  0.4401400725140693  0.1956238530240164
  0.9047103987432253  0.6901393735225939  0.1956249338968853
  0.9047109362907235  0.9401402011304980  0.1956239728655219
  0.9141069650204158  0.1887555762826801  0.3190896517055308
  0.9141056729993211  0.4387551228623626  0.3190899530911615
  0.9141052899453833  0.6887567121253112  0.3190901089938861
  0.9141059393195430  0.9387556102131567  0.3190901294243682
  0.7760459864924586  0.0641689920743336  0.1293426907977052
  0.7760447815932945  0.3141673008947879  0.1293412638558054
  0.7760460798369313  0.5641688877261970  0.1293433907308447
  0.7760440391262508  0.8141692137978999  0.1293423489634456
  0.7712920228163108  0.0638406375411135  0.2593401478123203
  0.7712907544224219  0.3138413734096425  0.2593407107174380
  0.7712926826224090  0.5638417445534358  0.2593407146528197
  0.7712903801535744  0.8138414184361481  0.2593406871767867
  0.5615577295955414  0.0654841249818111  0.1250335004992573
  0.5615605090705872  0.3154829410467473  0.1250348575363916
  0.5615582569936273  0.5654832641260309  0.1250365400602798
  0.5615582027456887  0.8154829988128733  0.1250339247536896
  0.5549658609922329  0.0638527728495639  0.2528568953848574
  0.5549675462107463  0.3138520158178134  0.2528569712805861
  0.5549659338614967  0.5638519390443638  0.2528587337287603
  0.5549644637080362  0.8138524723621628  0.2528559765435440
  0.1904843276239458  0.1889149506198751  0.1309925235411381
  0.1904823885373702  0.4389143854513624  0.1309951305286323
  0.1904833710394372  0.6889158425640441  0.1309948461028344
  0.1904858276502994  0.9389156033825924  0.1309926205421268
  0.1923364565834381  0.1891345782405804  0.2612845274265838
  0.1923341827793890  0.4391348711573153  0.2612873372222098
  0.1923354409435498  0.6891339824907597  0.2612877975711950
  0.1923353288258284  0.9391351504009419  0.2612848926515194
  0.4047015392852751  0.1901087818466453  0.1277993550878620
  0.4047010179575416  0.4401069355290051  0.1278019234516664
  0.4047019200749663  0.6901067152813285  0.1278017537579876
  0.4047016847740469  0.9401062024235627  0.1277999916383436
  0.4092295190557614  0.1907738830039939  0.2569976741127424
  0.4092286976696875  0.4407748578263376  0.2569989011809778
  0.4092272393499750  0.6907740186590154  0.2569997781370536
  0.4092275123533805  0.9407738104485750  0.2569978204537973
  0.4171841105736446  0.9389135782556347  0.3853394006556643
  0.4171836087652775  0.1889121896817940  0.3853390170425351
  0.4171836566260686  0.4389116831471885  0.3853396315787359
  0.4171841827595135  0.6889120585615719  0.3853404743105333
  0.5612756578624549  0.0636469672757821  0.3828393649762576
  0.5612760849848693  0.3136455962682850  0.3828405352713296
  0.5612768795085162  0.5636447828095329  0.3828410481120745
  0.5612752156879318  0.8136461454255371  0.3828404669406546
  0.1839048245934162  0.1891675148564318  0.3909473868764922
  0.1839055737922179  0.4391670094046265  0.3909487220712355
  0.1839066217938319  0.6891693242762178  0.3909499690338605
  0.1839058398602944  0.9391705325843328  0.3909482250332782
  0.7828489726854698  0.8142003819606769  0.0020222146018398
  0.7828475591209858  0.5642003870742065  0.0020224584353376
  0.7828492416950658  0.3142006899156379  0.0020223180430606
  0.7828492645603757  0.0642001442963540  0.0020218161203956
  0.5531271867719898  0.8136268268336024  0.0000394855634243
  0.5531260850646447  0.5636277096483386  0.0000400274702058
  0.5531274594315722  0.3136283470350232  0.0000386514639420
  0.5531283449871813  0.0636275856835866  0.0000354274977206
  0.1883684663866168  0.6885530242371292  0.0008418118180627
  0.1883680353659389  0.4385572174602267  0.0008402259615203
  0.1883690682038341  0.1885563690232885  0.0008388206627935
  0.1883701609508568  0.9385537220040130  0.0008404934751295
  0.4139153723063062  0.6887034991753885  0.0043038914334326
  0.4139160829896776  0.4387053887074744  0.0043030095182024
  0.4139163872220095  0.1887053567726974  0.0043022826115046
  0.4139176372145792  0.9387051136968669  0.0043009832845968
  0.9168157809170679  0.9388763704084589  0.9380453352467355
  0.9168102448179377  0.6888769023306257  0.9380445715770145
  0.9168104372356295  0.4388785230328480  0.9380447109122795
  0.9168147329764319  0.1888767321357445  0.9380445477909637
  0.0608869241937372  0.8136005947231240  0.9407345627309402
  0.0608829554478889  0.5636031082435382  0.9407348376719895
  0.0608830902903040  0.3136047318649112  0.9407330227575484
  0.0608867360221444  0.0636026345507701  0.9407325962925016
  0.6835680318893066  0.6892080452637563  0.9325110630501079
  0.6835690100134184  0.4392093230963549  0.9325100322688752
  0.6835756183873678  0.1892079585974403  0.9325073416935147
  0.6835768600940170  0.9392078983021748  0.9325067177984584
  0.9954989625338905  0.0134570197756200  0.0700260602183242
  0.9954939671118985  0.2634584446839269  0.0700295397134112
  0.9954944812896478  0.5134581720748537  0.0700283514989987
  0.9954919426187925  0.7634572990084567  0.0700305264701537
  0.0037949669731286  0.0164383020392149  0.1982676131989764
  0.0037925569988096  0.2664382275379081  0.1982659666501524
  0.0037936811844967  0.5164390659677175  0.1982696915283108
  0.0037936466855151  0.7664386028709760  0.1982664500801233
  0.9964648242949087  0.0099114576525731  0.3206584972039901
  0.9964661847436291  0.2599110384755510  0.3206589922216772
  0.9964668544455894  0.5099133098491999  0.3206602461072774
  0.9964673548197223  0.7599122044125921  0.3206600570117120
  0.9643255159469676  0.1392801312539510  0.0680345912221208
  0.9643207749475098  0.3892805534287381  0.0680370504960544
  0.9643218625794918  0.6392810451337921  0.0680359638847073
  0.9643210463014377  0.8892807453993788  0.0680376157278400
  0.9633388386047353  0.1414368652787292  0.1964875264119288
  0.9633369756107583  0.3914371349316422  0.1964862197676882
  0.9633382155930369  0.6414365408814721  0.1964876506002450
  0.9633369961600071  0.8914369354246237  0.1964866378773148
  0.9966437021721591  0.1174916985695324  0.3206027782063948
  0.9966442741161380  0.3674922599742308  0.3206034771798826
  0.9966426939422645  0.6174910287280204  0.3206047414520333
  0.9966431380947972  0.8674921974605114  0.3206042246337460
  0.5036265012732816  0.0163952437056451  0.1252006941100817
  0.5036268100287399  0.2663961554119538  0.1252012972303620
  0.5036265750233549  0.5163951539735765  0.1252028751134346
  0.5036254894293950  0.7663953074206277  0.1252012578616293
  0.4956187472559460  0.0134720436225768  0.2534929221616535
  0.4956188653728342  0.2634722144415630  0.2534951334360225
  0.4956184018041465  0.5134705620440839  0.2534941379711861
  0.4956167595600386  0.7634715067553370  0.2534938753015104
  0.4633236927176134  0.1413839247464976  0.1269204842069609
  0.4633251836283514  0.3913844037790900  0.1269219797127625
  0.4633258422158966  0.6413833503295308  0.1269234380369972
  0.4633278704620731  0.8913841575120570  0.1269214582134344
  0.4645564401842332  0.1392884657594783  0.2553897445971153
  0.4645522108613233  0.3892880531177573  0.2553919953428639
  0.4645530596859763  0.6392886156013114  0.2553921492167126
  0.4645540751390156  0.8892888438409517  0.2553910503760446
  0.8709678191319107  0.1885137111072013  0.3563814435164484
  0.8709667631778607  0.4385152711256942  0.3563816634189354
  0.8709654727089662  0.6885166163809370  0.3563818621468653
  0.8709666342355357  0.9385170636444559  0.3563820553583525
  0.3800970556589402  0.9385966675227602  0.4242528345321351
  0.3800973246196303  0.1885932738108578  0.4242527389348328
  0.3800990991218066  0.4385903607758137  0.4242538208753691
  0.3800992783742838  0.6885926205071179  0.4242543097846480
  0.5068846258356581  0.1175024085154174  0.3851238641722987
  0.5068855080592023  0.3675012309451459  0.3851244271756533
  0.5068870633525547  0.6175011787924780  0.3851254480513877
  0.5068845236546614  0.8675019136649338  0.3851248678946745
  0.5065188500804034  0.0098793969211407  0.3851697914643621
  0.5065186810443703  0.2598778688084368  0.3851699678713846
  0.5065203024343585  0.5098763455724397  0.3851716170792288
  0.5065169957649641  0.7598786845295583  0.3851712832658054
  0.1382373903214889  0.2415321636512373  0.3794572382024406
  0.1382381614669267  0.4915329370580335  0.3794598062895074
  0.1382397447328653  0.7415349133771638  0.3794600683813997
  0.1382380549596603  0.9915349335973490  0.3794566872333505
  0.1390582554930607  0.1362681942833918  0.3797036427794976
  0.1390592392393218  0.3862675131066880  0.3797057825644650
  0.1390601042279624  0.6362696369185494  0.3797073804046318
  0.1390601833733937  0.8862705690289711  0.3797059118301910
  0.4964085952589473  0.8674252216582142  0.0027927810058652
  0.4964052716577851  0.6174254024161879  0.0027941278332483
  0.4964078116598751  0.3674264383812249  0.0027945139002353
  0.4964089726140822  0.1174251816169975  0.0027909564547622
  0.3707503766599060  0.6884254514393813  0.9670197965759785
  0.3707511511095530  0.4384270429210808  0.9670189622335835
  0.3707528531462101  0.1884267889533728  0.9670170390209551
  0.3707508600498758  0.9384268270652015  0.9670171991395976
  0.8797754625409432  0.9384475953011290  0.8991198557466510
  0.8797672144534796  0.6884491232552776  0.8991199528947146
  0.8797684561445239  0.4384526414709116  0.8991197201716897
  0.8797729910387883  0.1884507483437479  0.8991193474455945
  0.0061624032659835  0.7598186048952187  0.9383165356522146
  0.0061597573263342  0.5098183681439438  0.9383181917764596
  0.0061601472938335  0.2598204846246934  0.9383164782472339
  0.0061635495299276  0.0098189512472943  0.9383148562912149
  0.0065122896248938  0.8674536472976783  0.9383817856456579
  0.0065103690849417  0.6174582879707170  0.9383825080459938
  0.0065082069703721  0.3674577388684646  0.9383803250901968
  0.0065124482931113  0.1174562273486751  0.9383787679966085
  0.6388220536475405  0.6362212940263129  0.9436794902932165
  0.6388209839475165  0.3862243849551433  0.9436803044847496
  0.6388274577385911  0.1362224621851180  0.9436767669341417
  0.6388312850878560  0.8862200768338760  0.9436738376426866
  0.6377804073241639  0.7414903398123108  0.9440452079172703
  0.6377845059608080  0.4914928810501027  0.9440448476345823
  0.6377909645915448  0.2414924943685983  0.9440391767064515
  0.6377876518350534  0.9914890804379273  0.9440398101188604
  0.4962209347823330  0.7598457324100021  0.0027634758614197
  0.4962207269379852  0.5098450024687829  0.0027622924151823
  0.4962210992858980  0.2598462194953939  0.0027600092858022
  0.4962227685463199  0.0098440238148895  0.0027595621255086
 
  0.00000000E+00  0.00000000E+00  0.00000000E+00
  0.00000000E+00  0.00000000E+00  0.00000000E+00
  0.00000000E+00  0.00000000E+00  0.00000000E+00
  0.00000000E+00  0.00000000E+00  0.00000000E+00
  0.00000000E+00  0.00000000E+00  0.00000000E+00
  0.00000000E+00  0.00000000E+00  0.00000000E+00
  0.00000000E+00  0.00000000E+00  0.00000000E+00
  0.00000000E+00  0.00000000E+00  0.00000000E+00
  0.00000000E+00  0.00000000E+00  0.00000000E+00
  0.00000000E+00  0.00000000E+00  0.00000000E+00
  0.00000000E+00  0.00000000E+00  0.00000000E+00
  0.00000000E+00  0.00000000E+00  0.00000000E+00
  0.00000000E+00  0.00000000E+00  0.00000000E+00
  0.00000000E+00  0.00000000E+00  0.00000000E+00
  0.00000000E+00  0.00000000E+00  0.00000000E+00
  0.00000000E+00  0.00000000E+00  0.00000000E+00
  0.00000000E+00  0.00000000E+00  0.00000000E+00
  0.00000000E+00  0.00000000E+00  0.00000000E+00
  0.00000000E+00  0.00000000E+00  0.00000000E+00
  0.00000000E+00  0.00000000E+00  0.00000000E+00
  0.00000000E+00  0.00000000E+00  0.00000000E+00
  0.00000000E+00  0.00000000E+00  0.00000000E+00
  0.00000000E+00  0.00000000E+00  0.00000000E+00
  0.00000000E+00  0.00000000E+00  0.00000000E+00
  0.00000000E+00  0.00000000E+00  0.00000000E+00
  0.00000000E+00  0.00000000E+00  0.00000000E+00
  0.00000000E+00  0.00000000E+00  0.00000000E+00
  0.00000000E+00  0.00000000E+00  0.00000000E+00
  0.00000000E+00  0.00000000E+00  0.00000000E+00
  0.00000000E+00  0.00000000E+00  0.00000000E+00
  0.00000000E+00  0.00000000E+00  0.00000000E+00
  0.00000000E+00  0.00000000E+00  0.00000000E+00
  0.00000000E+00  0.00000000E+00  0.00000000E+00
  0.00000000E+00  0.00000000E+00  0.00000000E+00
  0.00000000E+00  0.00000000E+00  0.00000000E+00
  0.00000000E+00  0.00000000E+00  0.00000000E+00
  0.00000000E+00  0.00000000E+00  0.00000000E+00
  0.00000000E+00  0.00000000E+00  0.00000000E+00
  0.00000000E+00  0.00000000E+00  0.00000000E+00
  0.00000000E+00  0.00000000E+00  0.00000000E+00
  0.00000000E+00  0.00000000E+00  0.00000000E+00
  0.00000000E+00  0.00000000E+00  0.00000000E+00
  0.00000000E+00  0.00000000E+00  0.00000000E+00
  0.00000000E+00  0.00000000E+00  0.00000000E+00
  0.00000000E+00  0.00000000E+00  0.00000000E+00
  0.00000000E+00  0.00000000E+00  0.00000000E+00
  0.00000000E+00  0.00000000E+00  0.00000000E+00
  0.00000000E+00  0.00000000E+00  0.00000000E+00
  0.00000000E+00  0.00000000E+00  0.00000000E+00
  0.00000000E+00  0.00000000E+00  0.00000000E+00
  0.00000000E+00  0.00000000E+00  0.00000000E+00
  0.00000000E+00  0.00000000E+00  0.00000000E+00
  0.00000000E+00  0.00000000E+00  0.00000000E+00
  0.00000000E+00  0.00000000E+00  0.00000000E+00
  0.00000000E+00  0.00000000E+00  0.00000000E+00
  0.00000000E+00  0.00000000E+00  0.00000000E+00
  0.00000000E+00  0.00000000E+00  0.00000000E+00
  0.00000000E+00  0.00000000E+00  0.00000000E+00
  0.00000000E+00  0.00000000E+00  0.00000000E+00
  0.00000000E+00  0.00000000E+00  0.00000000E+00
  0.00000000E+00  0.00000000E+00  0.00000000E+00
  0.00000000E+00  0.00000000E+00  0.00000000E+00
  0.00000000E+00  0.00000000E+00  0.00000000E+00
  0.00000000E+00  0.00000000E+00  0.00000000E+00
  0.00000000E+00  0.00000000E+00  0.00000000E+00
  0.00000000E+00  0.00000000E+00  0.00000000E+00
  0.00000000E+00  0.00000000E+00  0.00000000E+00
  0.00000000E+00  0.00000000E+00  0.00000000E+00
  0.00000000E+00  0.00000000E+00  0.00000000E+00
  0.00000000E+00  0.00000000E+00  0.00000000E+00
  0.00000000E+00  0.00000000E+00  0.00000000E+00
  0.00000000E+00  0.00000000E+00  0.00000000E+00
  0.00000000E+00  0.00000000E+00  0.00000000E+00
  0.00000000E+00  0.00000000E+00  0.00000000E+00
  0.00000000E+00  0.00000000E+00  0.00000000E+00
  0.00000000E+00  0.00000000E+00  0.00000000E+00
  0.00000000E+00  0.00000000E+00  0.00000000E+00
  0.00000000E+00  0.00000000E+00  0.00000000E+00
  0.00000000E+00  0.00000000E+00  0.00000000E+00
  0.00000000E+00  0.00000000E+00  0.00000000E+00
  0.00000000E+00  0.00000000E+00  0.00000000E+00
  0.00000000E+00  0.00000000E+00  0.00000000E+00
  0.00000000E+00  0.00000000E+00  0.00000000E+00
  0.00000000E+00  0.00000000E+00  0.00000000E+00
  0.00000000E+00  0.00000000E+00  0.00000000E+00
  0.00000000E+00  0.00000000E+00  0.00000000E+00
  0.00000000E+00  0.00000000E+00  0.00000000E+00
  0.00000000E+00  0.00000000E+00  0.00000000E+00
  0.00000000E+00  0.00000000E+00  0.00000000E+00
  0.00000000E+00  0.00000000E+00  0.00000000E+00
  0.00000000E+00  0.00000000E+00  0.00000000E+00
  0.00000000E+00  0.00000000E+00  0.00000000E+00
  0.00000000E+00  0.00000000E+00  0.00000000E+00
  0.00000000E+00  0.00000000E+00  0.00000000E+00
  0.00000000E+00  0.00000000E+00  0.00000000E+00
  0.00000000E+00  0.00000000E+00  0.00000000E+00
  0.00000000E+00  0.00000000E+00  0.00000000E+00
  0.00000000E+00  0.00000000E+00  0.00000000E+00
  0.00000000E+00  0.00000000E+00  0.00000000E+00
  0.00000000E+00  0.00000000E+00  0.00000000E+00
  0.00000000E+00  0.00000000E+00  0.00000000E+00
  0.00000000E+00  0.00000000E+00  0.00000000E+00
  0.00000000E+00  0.00000000E+00  0.00000000E+00
  0.00000000E+00  0.00000000E+00  0.00000000E+00
  0.00000000E+00  0.00000000E+00  0.00000000E+00
  0.00000000E+00  0.00000000E+00  0.00000000E+00
  0.00000000E+00  0.00000000E+00  0.00000000E+00
  0.00000000E+00  0.00000000E+00  0.00000000E+00
  0.00000000E+00  0.00000000E+00  0.00000000E+00
  0.00000000E+00  0.00000000E+00  0.00000000E+00
  0.00000000E+00  0.00000000E+00  0.00000000E+00
  0.00000000E+00  0.00000000E+00  0.00000000E+00
  0.00000000E+00  0.00000000E+00  0.00000000E+00
  0.00000000E+00  0.00000000E+00  0.00000000E+00
  0.00000000E+00  0.00000000E+00  0.00000000E+00
  0.00000000E+00  0.00000000E+00  0.00000000E+00
  0.00000000E+00  0.00000000E+00  0.00000000E+00
  0.00000000E+00  0.00000000E+00  0.00000000E+00
  0.00000000E+00  0.00000000E+00  0.00000000E+00
  0.00000000E+00  0.00000000E+00  0.00000000E+00
  0.00000000E+00  0.00000000E+00  0.00000000E+00
  0.00000000E+00  0.00000000E+00  0.00000000E+00
  0.00000000E+00  0.00000000E+00  0.00000000E+00
  0.00000000E+00  0.00000000E+00  0.00000000E+00
  0.00000000E+00  0.00000000E+00  0.00000000E+00
  0.00000000E+00  0.00000000E+00  0.00000000E+00
  0.00000000E+00  0.00000000E+00  0.00000000E+00
  0.00000000E+00  0.00000000E+00  0.00000000E+00
  0.00000000E+00  0.00000000E+00  0.00000000E+00
  0.00000000E+00  0.00000000E+00  0.00000000E+00
  0.00000000E+00  0.00000000E+00  0.00000000E+00
  0.00000000E+00  0.00000000E+00  0.00000000E+00
  0.00000000E+00  0.00000000E+00  0.00000000E+00
  0.00000000E+00  0.00000000E+00  0.00000000E+00
  0.00000000E+00  0.00000000E+00  0.00000000E+00
  0.00000000E+00  0.00000000E+00  0.00000000E+00
  0.00000000E+00  0.00000000E+00  0.00000000E+00
  0.00000000E+00  0.00000000E+00  0.00000000E+00
  0.00000000E+00  0.00000000E+00  0.00000000E+00
  0.00000000E+00  0.00000000E+00  0.00000000E+00
  0.00000000E+00  0.00000000E+00  0.00000000E+00
  0.00000000E+00  0.00000000E+00  0.00000000E+00
  0.00000000E+00  0.00000000E+00  0.00000000E+00
  0.00000000E+00  0.00000000E+00  0.00000000E+00
  0.00000000E+00  0.00000000E+00  0.00000000E+00
  0.00000000E+00  0.00000000E+00  0.00000000E+00
  0.00000000E+00  0.00000000E+00  0.00000000E+00
  0.00000000E+00  0.00000000E+00  0.00000000E+00
  0.00000000E+00  0.00000000E+00  0.00000000E+00
  0.00000000E+00  0.00000000E+00  0.00000000E+00
  0.00000000E+00  0.00000000E+00  0.00000000E+00
  0.00000000E+00  0.00000000E+00  0.00000000E+00
  0.00000000E+00  0.00000000E+00  0.00000000E+00
  0.00000000E+00  0.00000000E+00  0.00000000E+00
  0.00000000E+00  0.00000000E+00  0.00000000E+00
  0.00000000E+00  0.00000000E+00  0.00000000E+00
  0.00000000E+00  0.00000000E+00  0.00000000E+00
  0.00000000E+00  0.00000000E+00  0.00000000E+00
  0.00000000E+00  0.00000000E+00  0.00000000E+00
  0.00000000E+00  0.00000000E+00  0.00000000E+00
  0.00000000E+00  0.00000000E+00  0.00000000E+00
  0.00000000E+00  0.00000000E+00  0.00000000E+00
  0.00000000E+00  0.00000000E+00  0.00000000E+00
  0.00000000E+00  0.00000000E+00  0.00000000E+00
  0.00000000E+00  0.00000000E+00  0.00000000E+00
  0.00000000E+00  0.00000000E+00  0.00000000E+00
  0.00000000E+00  0.00000000E+00  0.00000000E+00
  0.00000000E+00  0.00000000E+00  0.00000000E+00
  0.00000000E+00  0.00000000E+00  0.00000000E+00
  0.00000000E+00  0.00000000E+00  0.00000000E+00
  0.00000000E+00  0.00000000E+00  0.00000000E+00
  0.00000000E+00  0.00000000E+00  0.00000000E+00
  0.00000000E+00  0.00000000E+00  0.00000000E+00
  0.00000000E+00  0.00000000E+00  0.00000000E+00
  0.00000000E+00  0.00000000E+00  0.00000000E+00
  0.00000000E+00  0.00000000E+00  0.00000000E+00
  0.00000000E+00  0.00000000E+00  0.00000000E+00
  0.00000000E+00  0.00000000E+00  0.00000000E+00
  0.00000000E+00  0.00000000E+00  0.00000000E+00
  0.00000000E+00  0.00000000E+00  0.00000000E+00
  0.00000000E+00  0.00000000E+00  0.00000000E+00
  0.00000000E+00  0.00000000E+00  0.00000000E+00
  0.00000000E+00  0.00000000E+00  0.00000000E+00
  0.00000000E+00  0.00000000E+00  0.00000000E+00
  0.00000000E+00  0.00000000E+00  0.00000000E+00
  0.00000000E+00  0.00000000E+00  0.00000000E+00
  0.00000000E+00  0.00000000E+00  0.00000000E+00
  0.00000000E+00  0.00000000E+00  0.00000000E+00
  0.00000000E+00  0.00000000E+00  0.00000000E+00
  0.00000000E+00  0.00000000E+00  0.00000000E+00
  0.00000000E+00  0.00000000E+00  0.00000000E+00
  0.00000000E+00  0.00000000E+00  0.00000000E+00
  0.00000000E+00  0.00000000E+00  0.00000000E+00
  0.00000000E+00  0.00000000E+00  0.00000000E+00
  0.00000000E+00  0.00000000E+00  0.00000000E+00
  0.00000000E+00  0.00000000E+00  0.00000000E+00
  0.00000000E+00  0.00000000E+00  0.00000000E+00
  0.00000000E+00  0.00000000E+00  0.00000000E+00
  0.00000000E+00  0.00000000E+00  0.00000000E+00
  0.00000000E+00  0.00000000E+00  0.00000000E+00
  0.00000000E+00  0.00000000E+00  0.00000000E+00
  0.00000000E+00  0.00000000E+00  0.00000000E+00
  0.00000000E+00  0.00000000E+00  0.00000000E+00
  0.00000000E+00  0.00000000E+00  0.00000000E+00
  0.00000000E+00  0.00000000E+00  0.00000000E+00
  0.00000000E+00  0.00000000E+00  0.00000000E+00
  0.00000000E+00  0.00000000E+00  0.00000000E+00
  0.00000000E+00  0.00000000E+00  0.00000000E+00
  0.00000000E+00  0.00000000E+00  0.00000000E+00
  0.00000000E+00  0.00000000E+00  0.00000000E+00
  0.00000000E+00  0.00000000E+00  0.00000000E+00
  0.00000000E+00  0.00000000E+00  0.00000000E+00
  0.00000000E+00  0.00000000E+00  0.00000000E+00
  0.00000000E+00  0.00000000E+00  0.00000000E+00
  0.00000000E+00  0.00000000E+00  0.00000000E+00
  0.00000000E+00  0.00000000E+00  0.00000000E+00
  0.00000000E+00  0.00000000E+00  0.00000000E+00
  0.00000000E+00  0.00000000E+00  0.00000000E+00
  0.00000000E+00  0.00000000E+00  0.00000000E+00
  0.00000000E+00  0.00000000E+00  0.00000000E+00
  0.00000000E+00  0.00000000E+00  0.00000000E+00
  0.00000000E+00  0.00000000E+00  0.00000000E+00
  0.00000000E+00  0.00000000E+00  0.00000000E+00
  0.00000000E+00  0.00000000E+00  0.00000000E+00
  0.00000000E+00  0.00000000E+00  0.00000000E+00
  0.00000000E+00  0.00000000E+00  0.00000000E+00
  0.00000000E+00  0.00000000E+00  0.00000000E+00
  0.00000000E+00  0.00000000E+00  0.00000000E+00
  0.00000000E+00  0.00000000E+00  0.00000000E+00
  0.00000000E+00  0.00000000E+00  0.00000000E+00
  0.00000000E+00  0.00000000E+00  0.00000000E+00
  0.00000000E+00  0.00000000E+00  0.00000000E+00
  0.00000000E+00  0.00000000E+00  0.00000000E+00
  0.00000000E+00  0.00000000E+00  0.00000000E+00
  0.00000000E+00  0.00000000E+00  0.00000000E+00
  0.00000000E+00  0.00000000E+00  0.00000000E+00
  0.00000000E+00  0.00000000E+00  0.00000000E+00
  0.00000000E+00  0.00000000E+00  0.00000000E+00
  0.00000000E+00  0.00000000E+00  0.00000000E+00
  0.00000000E+00  0.00000000E+00  0.00000000E+00
  0.00000000E+00  0.00000000E+00  0.00000000E+00
  0.00000000E+00  0.00000000E+00  0.00000000E+00
  0.00000000E+00  0.00000000E+00  0.00000000E+00
  0.00000000E+00  0.00000000E+00  0.00000000E+00
  0.00000000E+00  0.00000000E+00  0.00000000E+00
  0.00000000E+00  0.00000000E+00  0.00000000E+00
  0.00000000E+00  0.00000000E+00  0.00000000E+00
  0.00000000E+00  0.00000000E+00  0.00000000E+00
  0.00000000E+00  0.00000000E+00  0.00000000E+00
  0.00000000E+00  0.00000000E+00  0.00000000E+00
  0.00000000E+00  0.00000000E+00  0.00000000E+00
  0.00000000E+00  0.00000000E+00  0.00000000E+00
  0.00000000E+00  0.00000000E+00  0.00000000E+00
  0.00000000E+00  0.00000000E+00  0.00000000E+00
  0.00000000E+00  0.00000000E+00  0.00000000E+00
  0.00000000E+00  0.00000000E+00  0.00000000E+00
  0.00000000E+00  0.00000000E+00  0.00000000E+00
  0.00000000E+00  0.00000000E+00  0.00000000E+00
  0.00000000E+00  0.00000000E+00  0.00000000E+00
  0.00000000E+00  0.00000000E+00  0.00000000E+00
  0.00000000E+00  0.00000000E+00  0.00000000E+00
  0.00000000E+00  0.00000000E+00  0.00000000E+00
  0.00000000E+00  0.00000000E+00  0.00000000E+00
  0.00000000E+00  0.00000000E+00  0.00000000E+00
